; benchmark generated from python API
(set-info :status unknown)
(declare-fun x_epoch () Int)
(declare-fun x_shift_period_799309_epoch () Int)
(declare-fun x_year () Int)
(declare-fun x_month () Int)
(declare-fun x_day () Int)
(declare-fun x_shift_period_799309_year () Int)
(declare-fun x_shift_period_799309_month () Int)
(declare-fun x_shift_period_799309_day () Int)
(assert
 (>= x_epoch (- 36584)))
(assert
 (<= x_epoch 36829))
(assert
 (>= x_epoch 8371))
(assert
 (>= x_shift_period_799309_epoch (- 36584)))
(assert
 (<= x_shift_period_799309_epoch 36829))
(assert
 (let (($x3062 (<= x_year 2100)))
 (let (($x2056 (>= x_year 1900)))
 (let (($x2089 (= x_month 11)))
 (let (($x4720 (= x_month 9)))
 (let (($x4726 (= x_month 6)))
 (let (($x4696 (= x_month 4)))
 (let ((?x4717 (ite (or $x4696 $x4726 $x4720 $x2089) 30 31)))
 (let (($x4721 (= (mod x_year 4) 0)))
 (let (($x461 (= (mod x_year 100) 0)))
 (let (($x701 (= (mod x_year 400) 0)))
 (let (($x4716 (ite $x701 true (ite $x461 false $x4721))))
 (let (($x107 (= x_month 2)))
 (let ((?x196 (ite $x107 (ite $x4716 29 28) ?x4717)))
 (let (($x496 (>= x_day 1)))
 (let (($x321 (<= x_month 12)))
 (let (($x471 (>= x_month 1)))
 (and $x471 $x321 $x496 (<= x_day ?x196) $x2056 $x3062))))))))))))))))))
(assert
 (let (($x29 (or (and (= (mod 2000 4) 0) (and (distinct (mod 2000 100) 0) true)) (= (mod 2000 400) 0))))
 (let ((?x36 (ite (= 3 2) (ite $x29 31 31) (ite (= 3 1) (ite $x29 0 0) 0))))
 (let ((?x40 (ite $x29 60 59)))
 (let ((?x41 (ite (= 3 3) ?x40 ?x36)))
 (let ((?x46 (ite (= 3 4) (ite $x29 91 90) ?x41)))
 (let ((?x52 (ite (= 3 5) (ite $x29 121 120) ?x46)))
 (let ((?x58 (ite (= 3 6) (ite $x29 152 151) ?x52)))
 (let ((?x64 (ite (= 3 7) (ite $x29 182 181) ?x58)))
 (let ((?x70 (ite (= 3 8) (ite $x29 213 212) ?x64)))
 (let ((?x76 (ite (= 3 9) (ite $x29 244 243) ?x70)))
 (let ((?x82 (ite (= 3 10) (ite $x29 274 273) ?x76)))
 (let ((?x88 (ite (= 3 11) (ite $x29 305 304) ?x82)))
 (let ((?x16 (- (+ (* 365 (- 2000 1)) (div (- 2000 1) 4)) (div (- 2000 1) 100))))
 (let ((?x95 (+ (+ ?x16 (div (- 2000 1) 400)) (ite (= 3 12) (ite $x29 335 334) ?x88))))
 (let ((?x97 (+ ?x95 (- 1 1))))
 (let (($x4721 (= (mod x_year 4) 0)))
 (let (($x461 (= (mod x_year 100) 0)))
 (let (($x701 (= (mod x_year 400) 0)))
 (let (($x4716 (ite $x701 true (ite $x461 false $x4721))))
 (let ((?x432 (ite (= 2 x_month) (ite $x4716 31 31) (ite (= 1 x_month) (ite $x4716 0 0) 0))))
 (let ((?x4453 (ite (= 4 x_month) (ite $x4716 91 90) (ite (= 3 x_month) (ite $x4716 60 59) ?x432))))
 (let ((?x4161 (ite (= 6 x_month) (ite $x4716 152 151) (ite (= 5 x_month) (ite $x4716 121 120) ?x4453))))
 (let ((?x3940 (ite (= 8 x_month) (ite $x4716 213 212) (ite (= 7 x_month) (ite $x4716 182 181) ?x4161))))
 (let ((?x2066 (ite (= 10 x_month) (ite $x4716 274 273) (ite (= 9 x_month) (ite $x4716 244 243) ?x3940))))
 (let ((?x1475 (ite (= 12 x_month) (ite $x4716 335 334) (ite (= 11 x_month) (ite $x4716 305 304) ?x2066))))
 (let ((?x3270 (- (+ (* 365 (- x_year 1)) (div (- x_year 1) 4)) (div (- x_year 1) 100))))
 (let ((?x2155 (+ (+ (+ ?x3270 (div (- x_year 1) 400)) ?x1475) (- x_day 1))))
 (= x_epoch (- ?x2155 ?x97))))))))))))))))))))))))))))))
(assert
 (let (($x1896 (<= x_shift_period_799309_year 2100)))
 (let (($x1907 (>= x_shift_period_799309_year 1900)))
 (let (($x4470 (= x_shift_period_799309_month 11)))
 (let (($x2169 (= x_shift_period_799309_month 9)))
 (let (($x3485 (= x_shift_period_799309_month 6)))
 (let (($x2622 (= x_shift_period_799309_month 4)))
 (let ((?x3044 (ite (or $x2622 $x3485 $x2169 $x4470) 30 31)))
 (let (($x311 (= (mod x_shift_period_799309_year 4) 0)))
 (let (($x1164 (= (mod x_shift_period_799309_year 100) 0)))
 (let (($x478 (= (mod x_shift_period_799309_year 400) 0)))
 (let (($x1640 (ite $x478 true (ite $x1164 false $x311))))
 (let (($x2396 (= x_shift_period_799309_month 2)))
 (let (($x1693 (>= x_shift_period_799309_day 1)))
 (let (($x1949 (<= x_shift_period_799309_month 12)))
 (let (($x445 (>= x_shift_period_799309_month 1)))
 (and $x445 $x1949 $x1693 (<= x_shift_period_799309_day (ite $x2396 (ite $x1640 29 28) ?x3044)) $x1907 $x1896)))))))))))))))))
(assert
 (let (($x29 (or (and (= (mod 2000 4) 0) (and (distinct (mod 2000 100) 0) true)) (= (mod 2000 400) 0))))
 (let ((?x36 (ite (= 3 2) (ite $x29 31 31) (ite (= 3 1) (ite $x29 0 0) 0))))
 (let ((?x40 (ite $x29 60 59)))
 (let ((?x41 (ite (= 3 3) ?x40 ?x36)))
 (let ((?x46 (ite (= 3 4) (ite $x29 91 90) ?x41)))
 (let ((?x52 (ite (= 3 5) (ite $x29 121 120) ?x46)))
 (let ((?x58 (ite (= 3 6) (ite $x29 152 151) ?x52)))
 (let ((?x64 (ite (= 3 7) (ite $x29 182 181) ?x58)))
 (let ((?x70 (ite (= 3 8) (ite $x29 213 212) ?x64)))
 (let ((?x76 (ite (= 3 9) (ite $x29 244 243) ?x70)))
 (let ((?x82 (ite (= 3 10) (ite $x29 274 273) ?x76)))
 (let ((?x88 (ite (= 3 11) (ite $x29 305 304) ?x82)))
 (let ((?x16 (- (+ (* 365 (- 2000 1)) (div (- 2000 1) 4)) (div (- 2000 1) 100))))
 (let ((?x95 (+ (+ ?x16 (div (- 2000 1) 400)) (ite (= 3 12) (ite $x29 335 334) ?x88))))
 (let ((?x97 (+ ?x95 (- 1 1))))
 (let (($x311 (= (mod x_shift_period_799309_year 4) 0)))
 (let (($x1164 (= (mod x_shift_period_799309_year 100) 0)))
 (let (($x478 (= (mod x_shift_period_799309_year 400) 0)))
 (let (($x1640 (ite $x478 true (ite $x1164 false $x311))))
 (let ((?x4220 (ite (= 1 x_shift_period_799309_month) (ite $x1640 0 0) 0)))
 (let ((?x274 (ite (= 3 x_shift_period_799309_month) (ite $x1640 60 59) (ite (= 2 x_shift_period_799309_month) (ite $x1640 31 31) ?x4220))))
 (let ((?x4472 (ite (= 5 x_shift_period_799309_month) (ite $x1640 121 120) (ite (= 4 x_shift_period_799309_month) (ite $x1640 91 90) ?x274))))
 (let ((?x846 (ite (= 7 x_shift_period_799309_month) (ite $x1640 182 181) (ite (= 6 x_shift_period_799309_month) (ite $x1640 152 151) ?x4472))))
 (let ((?x1911 (ite (= 9 x_shift_period_799309_month) (ite $x1640 244 243) (ite (= 8 x_shift_period_799309_month) (ite $x1640 213 212) ?x846))))
 (let ((?x586 (ite (= 11 x_shift_period_799309_month) (ite $x1640 305 304) (ite (= 10 x_shift_period_799309_month) (ite $x1640 274 273) ?x1911))))
 (let ((?x2522 (+ (* 365 (- x_shift_period_799309_year 1)) (div (- x_shift_period_799309_year 1) 4))))
 (let ((?x1531 (+ (- ?x2522 (div (- x_shift_period_799309_year 1) 100)) (div (- x_shift_period_799309_year 1) 400))))
 (let ((?x1941 (+ ?x1531 (ite (= 12 x_shift_period_799309_month) (ite $x1640 335 334) ?x586))))
 (= x_shift_period_799309_epoch (- (+ ?x1941 (- x_shift_period_799309_day 1)) ?x97)))))))))))))))))))))))))))))))
(assert
 (let ((?x3347 (+ (+ (* 12 x_year) (- x_month 1)) 1)))
 (let ((?x146 (div ?x3347 12)))
 (= x_shift_period_799309_year ?x146))))
(assert
 (let ((?x2874 (+ (mod (+ (+ (* 12 x_year) (- x_month 1)) 1) 12) 1)))
 (= x_shift_period_799309_month ?x2874)))
(assert
 (let ((?x2874 (+ (mod (+ (+ (* 12 x_year) (- x_month 1)) 1) 12) 1)))
 (let ((?x770 (ite (or (= ?x2874 4) (= ?x2874 6) (= ?x2874 9) (= ?x2874 11)) 30 31)))
 (let ((?x3347 (+ (+ (* 12 x_year) (- x_month 1)) 1)))
 (let ((?x146 (div ?x3347 12)))
 (let (($x1324 (ite (= (mod ?x146 400) 0) true (ite (= (mod ?x146 100) 0) false (= (mod ?x146 4) 0)))))
 (let ((?x1630 (ite (= ?x2874 2) (ite $x1324 29 28) ?x770)))
 (let ((?x1631 (ite (<= x_day ?x1630) x_day ?x1630)))
 (let (($x2089 (= x_month 11)))
 (let (($x4720 (= x_month 9)))
 (let (($x4726 (= x_month 6)))
 (let (($x4696 (= x_month 4)))
 (let ((?x4717 (ite (or $x4696 $x4726 $x4720 $x2089) 30 31)))
 (let (($x4721 (= (mod x_year 4) 0)))
 (let (($x461 (= (mod x_year 100) 0)))
 (let (($x701 (= (mod x_year 400) 0)))
 (let (($x4716 (ite $x701 true (ite $x461 false $x4721))))
 (let (($x107 (= x_month 2)))
 (let ((?x196 (ite $x107 (ite $x4716 29 28) ?x4717)))
 (= x_shift_period_799309_day (ite false (ite (= x_day ?x196) ?x1630 ?x1631) ?x1631)))))))))))))))))))))
(assert
 (<= x_shift_period_799309_epoch 8400))
(check-sat)
